100
128
17
9
16
10
9
25
1
13
2
5
20
1
2
3
10
3
5
5
19
6
13
12
21
6
12
12
1
10
12
8
12
51
10
21
11
8
11
10
40
5
43
11
10
55
7
4
1
22
6
17
5
27
21
2
8
11
55
20
7
35
55
40
48
56
18
55
58
14
8
5
1
61
51
52
61
10
16
33
42
62
36
32
56
41
42
2
55
58
1
14
39
7
55
45
64
24
2
3
6
5